DATASET = "thpack3";
INSTANCE = "068";

WIDTH = 233;
HEIGHT = 220;
LENGTH = 587;

NO_OF_SHAPES = 8;
size = [|
  60,44,36 |
  76,42,40 |
  65,49,48 |
  109,92,51 |
  93,42,31 |
  83,64,59 |
  96,90,55 |
  52,42,31 |
|];

verticality = [|
  1,1,1 |
  1,1,1 |
  1,1,1 |
  0,1,1 |
  0,1,1 |
  1,1,1 |
  1,1,1 |
  1,1,1 |
|];

box_count = [
  12,
  15,
  11,
  17,
  15,
  17,
  17,
  15,
];
